0 12 20 28 36 42 
0 13 21 29 37 43 
0 14 22 30 38 44 
0 17 25 33 39 45 
0 18 26 34 40 46 
0 19 27 35 41 47 
0 20 28 36 42 48 
0 21 29 37 43 49 
0 22 30 38 44 50 
0 25 33 39 45 53 
0 26 34 40 46 54 
0 27 35 41 47 55 
0 28 36 42 48 56 
0 29 37 43 49 57 
0 30 38 44 50 58 
0 33 39 45 53 61 
0 34 40 46 54 62 
0 35 41 47 55 63 
0 36 42 48 56 64 
0 37 43 49 57 65 
0 38 44 50 58 66 
0 39 45 53 61 69 
0 40 46 54 62 70 
0 41 47 55 63 71 
0 12 13 14 15 16 
0 13 14 15 16 17 
0 14 15 16 17 18 
0 15 16 17 18 19 
0 20 21 22 23 24 
0 21 22 23 24 25 
0 22 23 24 25 26 
0 23 24 25 26 27 
0 28 29 30 31 32 
0 29 30 31 32 33 
0 30 31 32 33 34 
0 31 32 33 34 35 
0 48 49 50 51 52 
0 49 50 51 52 53 
0 50 51 52 53 54 
0 51 52 53 54 55 
0 56 57 58 59 60 
0 57 58 59 60 61 
0 58 59 60 61 62 
0 59 60 61 62 63 
0 64 65 66 67 68 
0 65 66 67 68 69 
0 66 67 68 69 70 
0 67 68 69 70 71 
1 13 14 20 21 29 
1 14 15 21 22 30 
1 15 16 22 23 31 
1 16 17 23 24 32 
1 17 18 24 25 33 
1 18 19 25 26 34 
1 21 22 28 29 37 
1 22 23 29 30 38 
1 25 26 32 33 39 
1 26 27 33 34 40 
1 29 30 36 37 43 
1 30 31 37 38 44 
1 34 35 39 40 46 
1 37 38 42 43 49 
1 40 41 45 46 54 
1 43 44 48 49 57 
1 45 46 52 53 61 
1 46 47 53 54 62 
1 49 50 56 57 65 
1 50 51 57 58 66 
1 51 52 58 59 67 
1 52 53 59 60 68 
1 53 54 60 61 69 
1 54 55 61 62 70 
1 13 20 21 22 30 
1 14 21 22 23 31 
1 15 22 23 24 32 
1 16 23 24 25 33 
1 17 24 25 26 34 
1 18 25 26 27 35 
1 21 28 29 30 38 
1 24 31 32 33 39 
1 25 32 33 34 40 
1 26 33 34 35 41 
1 29 36 37 38 44 
1 34 39 40 41 47 
1 37 42 43 44 50 
1 40 45 46 47 55 
1 43 48 49 50 58 
1 44 49 50 51 59 
1 45 52 53 54 62 
1 46 53 54 55 63 
1 49 56 57 58 66 
1 50 57 58 59 67 
1 51 58 59 60 68 
1 52 59 60 61 69 
1 53 60 61 62 70 
1 54 61 62 63 71 
1 13 20 21 22 28 
1 14 21 22 23 29 
1 15 22 23 24 30 
1 16 23 24 25 31 
1 17 24 25 26 32 
1 18 25 26 27 33 
1 21 28 29 30 36 
1 22 29 30 31 37 
1 23 30 31 32 38 
1 26 33 34 35 39 
1 29 36 37 38 42 
1 34 39 40 41 45 
1 37 42 43 44 48 
1 40 45 46 47 53 
1 43 48 49 50 56 
1 44 49 50 51 57 
1 45 52 53 54 60 
1 46 53 54 55 61 
1 49 56 57 58 64 
1 50 57 58 59 65 
1 51 58 59 60 66 
1 52 59 60 61 67 
1 53 60 61 62 68 
1 54 61 62 63 69 
1 12 13 21 22 29 
1 13 14 22 23 30 
1 14 15 23 24 31 
1 15 16 24 25 32 
1 16 17 25 26 33 
1 17 18 26 27 34 
1 20 21 29 30 37 
1 21 22 30 31 38 
1 24 25 33 34 39 
1 25 26 34 35 40 
1 28 29 37 38 43 
1 32 33 39 40 45 
1 33 34 40 41 46 
1 36 37 43 44 49 
1 39 40 46 47 54 
1 42 43 49 50 57 
1 43 44 50 51 58 
1 45 46 54 55 62 
1 48 49 57 58 65 
1 49 50 58 59 66 
1 50 51 59 60 67 
1 51 52 60 61 68 
1 52 53 61 62 69 
1 53 54 62 63 70 
1 12 20 21 22 29 
1 13 21 22 23 30 
1 14 22 23 24 31 
1 15 23 24 25 32 
1 16 24 25 26 33 
1 17 25 26 27 34 
1 20 28 29 30 37 
1 21 29 30 31 38 
1 24 32 33 34 39 
1 25 33 34 35 40 
1 28 36 37 38 43 
1 33 39 40 41 46 
1 36 42 43 44 49 
1 39 45 46 47 54 
1 42 48 49 50 57 
1 43 49 50 51 58 
1 44 50 51 52 59 
1 45 53 54 55 62 
1 48 56 57 58 65 
1 49 57 58 59 66 
1 50 58 59 60 67 
1 51 59 60 61 68 
1 52 60 61 62 69 
1 53 61 62 63 70 
1 13 21 22 28 29 
1 14 22 23 29 30 
1 15 23 24 30 31 
1 16 24 25 31 32 
1 17 25 26 32 33 
1 18 26 27 33 34 
1 21 29 30 36 37 
1 22 30 31 37 38 
1 26 34 35 39 40 
1 29 37 38 42 43 
1 34 40 41 45 46 
1 37 43 44 48 49 
1 39 45 46 52 53 
1 40 46 47 53 54 
1 43 49 50 56 57 
1 44 50 51 57 58 
1 45 53 54 60 61 
1 46 54 55 61 62 
1 49 57 58 64 65 
1 50 58 59 65 66 
1 51 59 60 66 67 
1 52 60 61 67 68 
1 53 61 62 68 69 
1 54 62 63 69 70 
1 13 20 21 29 30 
1 14 21 22 30 31 
1 15 22 23 31 32 
1 16 23 24 32 33 
1 17 24 25 33 34 
1 18 25 26 34 35 
1 21 28 29 37 38 
1 25 32 33 39 40 
1 26 33 34 40 41 
1 29 36 37 43 44 
1 34 39 40 46 47 
1 37 42 43 49 50 
1 38 43 44 50 51 
1 40 45 46 54 55 
1 43 48 49 57 58 
1 44 49 50 58 59 
1 45 52 53 61 62 
1 46 53 54 62 63 
1 49 56 57 65 66 
1 50 57 58 66 67 
1 51 58 59 67 68 
1 52 59 60 68 69 
1 53 60 61 69 70 
1 54 61 62 70 71 
1 14 20 21 22 29 
1 15 21 22 23 30 
1 16 22 23 24 31 
1 17 23 24 25 32 
1 18 24 25 26 33 
1 19 25 26 27 34 
1 22 28 29 30 37 
1 23 29 30 31 38 
1 26 32 33 34 39 
1 27 33 34 35 40 
1 30 36 37 38 43 
1 35 39 40 41 46 
1 38 42 43 44 49 
1 41 45 46 47 54 
1 44 48 49 50 57 
1 45 51 52 53 60 
1 46 52 53 54 61 
1 47 53 54 55 62 
1 50 56 57 58 65 
1 51 57 58 59 66 
1 52 58 59 60 67 
1 53 59 60 61 68 
1 54 60 61 62 69 
1 55 61 62 63 70 
2 12 13 14 15 23 
2 13 14 15 16 24 
2 14 15 16 17 25 
2 15 16 17 18 26 
2 16 17 18 19 27 
2 20 21 22 23 31 
2 21 22 23 24 32 
2 22 23 24 25 33 
2 23 24 25 26 34 
2 24 25 26 27 35 
2 30 31 32 33 39 
2 31 32 33 34 40 
2 32 33 34 35 41 
2 48 49 50 51 59 
2 49 50 51 52 60 
2 50 51 52 53 61 
2 51 52 53 54 62 
2 52 53 54 55 63 
2 56 57 58 59 67 
2 57 58 59 60 68 
2 58 59 60 61 69 
2 59 60 61 62 70 
2 60 61 62 63 71 
2 13 21 29 36 37 
2 14 22 30 37 38 
2 18 26 34 39 40 
2 19 27 35 40 41 
2 21 29 37 42 43 
2 22 30 38 43 44 
2 26 34 40 45 46 
2 27 35 41 46 47 
2 29 37 43 48 49 
2 30 38 44 49 50 
2 33 39 45 52 53 
2 34 40 46 53 54 
2 35 41 47 54 55 
2 37 43 49 56 57 
2 38 44 50 57 58 
2 39 45 53 60 61 
2 40 46 54 61 62 
2 41 47 55 62 63 
2 43 49 57 64 65 
2 44 50 58 65 66 
2 45 53 61 68 69 
2 46 54 62 69 70 
2 47 55 63 70 71 
2 12 20 28 36 37 
2 13 21 29 37 38 
2 17 25 33 39 40 
2 18 26 34 40 41 
2 20 28 36 42 43 
2 21 29 37 43 44 
2 25 33 39 45 46 
2 26 34 40 46 47 
2 28 36 42 48 49 
2 29 37 43 49 50 
2 30 38 44 50 51 
2 33 39 45 53 54 
2 34 40 46 54 55 
2 36 42 48 56 57 
2 37 43 49 57 58 
2 38 44 50 58 59 
2 39 45 53 61 62 
2 40 46 54 62 63 
2 42 48 56 64 65 
2 43 49 57 65 66 
2 44 50 58 66 67 
2 45 53 61 69 70 
2 46 54 62 70 71 
2 12 13 14 15 20 
2 13 14 15 16 21 
2 14 15 16 17 22 
2 15 16 17 18 23 
2 16 17 18 19 24 
2 20 21 22 23 28 
2 21 22 23 24 29 
2 22 23 24 25 30 
2 23 24 25 26 31 
2 24 25 26 27 32 
2 28 29 30 31 36 
2 29 30 31 32 37 
2 30 31 32 33 38 
2 48 49 50 51 56 
2 49 50 51 52 57 
2 50 51 52 53 58 
2 51 52 53 54 59 
2 52 53 54 55 60 
2 56 57 58 59 64 
2 57 58 59 60 65 
2 58 59 60 61 66 
2 59 60 61 62 67 
2 60 61 62 63 68 
2 12 13 20 28 36 
2 13 14 21 29 37 
2 14 15 22 30 38 
2 17 18 25 33 39 
2 18 19 26 34 40 
2 20 21 28 36 42 
2 21 22 29 37 43 
2 22 23 30 38 44 
2 25 26 33 39 45 
2 26 27 34 40 46 
2 28 29 36 42 48 
2 29 30 37 43 49 
2 30 31 38 44 50 
2 33 34 39 45 53 
2 34 35 40 46 54 
2 36 37 42 48 56 
2 37 38 43 49 57 
2 39 40 45 53 61 
2 40 41 46 54 62 
2 42 43 48 56 64 
2 43 44 49 57 65 
2 45 46 53 61 69 
2 46 47 54 62 70 
2 12 20 21 22 23 
2 13 21 22 23 24 
2 14 22 23 24 25 
2 15 23 24 25 26 
2 16 24 25 26 27 
2 20 28 29 30 31 
2 21 29 30 31 32 
2 22 30 31 32 33 
2 23 31 32 33 34 
2 24 32 33 34 35 
2 42 48 49 50 51 
2 43 49 50 51 52 
2 44 50 51 52 53 
2 48 56 57 58 59 
2 49 57 58 59 60 
2 50 58 59 60 61 
2 51 59 60 61 62 
2 52 60 61 62 63 
2 56 64 65 66 67 
2 57 65 66 67 68 
2 58 66 67 68 69 
2 59 67 68 69 70 
2 60 68 69 70 71 
2 15 20 21 22 23 
2 16 21 22 23 24 
2 17 22 23 24 25 
2 18 23 24 25 26 
2 19 24 25 26 27 
2 23 28 29 30 31 
2 24 29 30 31 32 
2 25 30 31 32 33 
2 26 31 32 33 34 
2 27 32 33 34 35 
2 45 50 51 52 53 
2 46 51 52 53 54 
2 47 52 53 54 55 
2 51 56 57 58 59 
2 52 57 58 59 60 
2 53 58 59 60 61 
2 54 59 60 61 62 
2 55 60 61 62 63 
2 59 64 65 66 67 
2 60 65 66 67 68 
2 61 66 67 68 69 
2 62 67 68 69 70 
2 63 68 69 70 71 
2 12 13 21 29 37 
2 13 14 22 30 38 
2 16 17 25 33 39 
2 17 18 26 34 40 
2 18 19 27 35 41 
2 20 21 29 37 43 
2 21 22 30 38 44 
2 24 25 33 39 45 
2 25 26 34 40 46 
2 26 27 35 41 47 
2 28 29 37 43 49 
2 29 30 38 44 50 
2 32 33 39 45 53 
2 33 34 40 46 54 
2 34 35 41 47 55 
2 36 37 43 49 57 
2 37 38 44 50 58 
2 39 40 46 54 62 
2 40 41 47 55 63 
2 42 43 49 57 65 
2 43 44 50 58 66 
2 45 46 54 62 70 
2 46 47 55 63 71 
3 12 13 14 20 21 
3 13 14 15 21 22 
3 14 15 16 22 23 
3 15 16 17 23 24 
3 16 17 18 24 25 
3 17 18 19 25 26 
3 20 21 22 28 29 
3 21 22 23 29 30 
3 22 23 24 30 31 
3 23 24 25 31 32 
3 24 25 26 32 33 
3 25 26 27 33 34 
3 28 29 30 36 37 
3 29 30 31 37 38 
3 33 34 35 39 40 
3 36 37 38 42 43 
3 39 40 41 45 46 
3 42 43 44 48 49 
3 45 46 47 53 54 
3 48 49 50 56 57 
3 49 50 51 57 58 
3 50 51 52 58 59 
3 51 52 53 59 60 
3 52 53 54 60 61 
3 53 54 55 61 62 
3 56 57 58 64 65 
3 57 58 59 65 66 
3 58 59 60 66 67 
3 59 60 61 67 68 
3 60 61 62 68 69 
3 61 62 63 69 70 
3 12 13 20 21 29 
3 13 14 21 22 30 
3 14 15 22 23 31 
3 15 16 23 24 32 
3 16 17 24 25 33 
3 17 18 25 26 34 
3 18 19 26 27 35 
3 20 21 28 29 37 
3 21 22 29 30 38 
3 24 25 32 33 39 
3 25 26 33 34 40 
3 26 27 34 35 41 
3 28 29 36 37 43 
3 29 30 37 38 44 
3 33 34 39 40 46 
3 34 35 40 41 47 
3 36 37 42 43 49 
3 37 38 43 44 50 
3 39 40 45 46 54 
3 40 41 46 47 55 
3 42 43 48 49 57 
3 43 44 49 50 58 
3 45 46 53 54 62 
3 46 47 54 55 63 
3 48 49 56 57 65 
3 49 50 57 58 66 
3 50 51 58 59 67 
3 51 52 59 60 68 
3 52 53 60 61 69 
3 53 54 61 62 70 
3 54 55 62 63 71 
3 12 13 20 21 28 
3 13 14 21 22 29 
3 14 15 22 23 30 
3 15 16 23 24 31 
3 16 17 24 25 32 
3 17 18 25 26 33 
3 18 19 26 27 34 
3 20 21 28 29 36 
3 21 22 29 30 37 
3 22 23 30 31 38 
3 25 26 33 34 39 
3 26 27 34 35 40 
3 28 29 36 37 42 
3 29 30 37 38 43 
3 33 34 39 40 45 
3 34 35 40 41 46 
3 36 37 42 43 48 
3 37 38 43 44 49 
3 39 40 45 46 53 
3 40 41 46 47 54 
3 42 43 48 49 56 
3 43 44 49 50 57 
3 45 46 53 54 61 
3 46 47 54 55 62 
3 48 49 56 57 64 
3 49 50 57 58 65 
3 50 51 58 59 66 
3 51 52 59 60 67 
3 52 53 60 61 68 
3 53 54 61 62 69 
3 54 55 62 63 70 
3 12 13 14 21 22 
3 13 14 15 22 23 
3 14 15 16 23 24 
3 15 16 17 24 25 
3 16 17 18 25 26 
3 17 18 19 26 27 
3 20 21 22 29 30 
3 21 22 23 30 31 
3 22 23 24 31 32 
3 23 24 25 32 33 
3 24 25 26 33 34 
3 25 26 27 34 35 
3 28 29 30 37 38 
3 32 33 34 39 40 
3 33 34 35 40 41 
3 36 37 38 43 44 
3 39 40 41 46 47 
3 42 43 44 49 50 
3 45 46 47 54 55 
3 48 49 50 57 58 
3 49 50 51 58 59 
3 50 51 52 59 60 
3 51 52 53 60 61 
3 52 53 54 61 62 
3 53 54 55 62 63 
3 56 57 58 65 66 
3 57 58 59 66 67 
3 58 59 60 67 68 
3 59 60 61 68 69 
3 60 61 62 69 70 
3 61 62 63 70 71 
3 12 20 21 28 29 
3 13 21 22 29 30 
3 14 22 23 30 31 
3 15 23 24 31 32 
3 16 24 25 32 33 
3 17 25 26 33 34 
3 18 26 27 34 35 
3 20 28 29 36 37 
3 21 29 30 37 38 
3 25 33 34 39 40 
3 26 34 35 40 41 
3 28 36 37 42 43 
3 29 37 38 43 44 
3 33 39 40 45 46 
3 34 40 41 46 47 
3 36 42 43 48 49 
3 37 43 44 49 50 
3 39 45 46 53 54 
3 40 46 47 54 55 
3 42 48 49 56 57 
3 43 49 50 57 58 
3 44 50 51 58 59 
3 45 53 54 61 62 
3 46 54 55 62 63 
3 48 56 57 64 65 
3 49 57 58 65 66 
3 50 58 59 66 67 
3 51 59 60 67 68 
3 52 60 61 68 69 
3 53 61 62 69 70 
3 54 62 63 70 71 
3 13 14 20 21 22 
3 14 15 21 22 23 
3 15 16 22 23 24 
3 16 17 23 24 25 
3 17 18 24 25 26 
3 18 19 25 26 27 
3 21 22 28 29 30 
3 22 23 29 30 31 
3 23 24 30 31 32 
3 24 25 31 32 33 
3 25 26 32 33 34 
3 26 27 33 34 35 
3 29 30 36 37 38 
3 34 35 39 40 41 
3 37 38 42 43 44 
3 40 41 45 46 47 
3 43 44 48 49 50 
3 45 46 52 53 54 
3 46 47 53 54 55 
3 49 50 56 57 58 
3 50 51 57 58 59 
3 51 52 58 59 60 
3 52 53 59 60 61 
3 53 54 60 61 62 
3 54 55 61 62 63 
3 57 58 64 65 66 
3 58 59 65 66 67 
3 59 60 66 67 68 
3 60 61 67 68 69 
3 61 62 68 69 70 
3 62 63 69 70 71 
3 12 13 20 21 22 
3 13 14 21 22 23 
3 14 15 22 23 24 
3 15 16 23 24 25 
3 16 17 24 25 26 
3 17 18 25 26 27 
3 20 21 28 29 30 
3 21 22 29 30 31 
3 22 23 30 31 32 
3 23 24 31 32 33 
3 24 25 32 33 34 
3 25 26 33 34 35 
3 28 29 36 37 38 
3 33 34 39 40 41 
3 36 37 42 43 44 
3 39 40 45 46 47 
3 42 43 48 49 50 
3 43 44 49 50 51 
3 45 46 53 54 55 
3 48 49 56 57 58 
3 49 50 57 58 59 
3 50 51 58 59 60 
3 51 52 59 60 61 
3 52 53 60 61 62 
3 53 54 61 62 63 
3 56 57 64 65 66 
3 57 58 65 66 67 
3 58 59 66 67 68 
3 59 60 67 68 69 
3 60 61 68 69 70 
3 61 62 69 70 71 
3 13 20 21 28 29 
3 14 21 22 29 30 
3 15 22 23 30 31 
3 16 23 24 31 32 
3 17 24 25 32 33 
3 18 25 26 33 34 
3 19 26 27 34 35 
3 21 28 29 36 37 
3 22 29 30 37 38 
3 26 33 34 39 40 
3 27 34 35 40 41 
3 29 36 37 42 43 
3 30 37 38 43 44 
3 34 39 40 45 46 
3 35 40 41 46 47 
3 37 42 43 48 49 
3 38 43 44 49 50 
3 40 45 46 53 54 
3 41 46 47 54 55 
3 43 48 49 56 57 
3 44 49 50 57 58 
3 45 52 53 60 61 
3 46 53 54 61 62 
3 47 54 55 62 63 
3 49 56 57 64 65 
3 50 57 58 65 66 
3 51 58 59 66 67 
3 52 59 60 67 68 
3 53 60 61 68 69 
3 54 61 62 69 70 
3 55 62 63 70 71 
4 12 20 28 29 37 
4 13 21 29 30 38 
4 16 24 32 33 39 
4 17 25 33 34 40 
4 18 26 34 35 41 
4 20 28 36 37 43 
4 21 29 37 38 44 
4 25 33 39 40 46 
4 26 34 40 41 47 
4 28 36 42 43 49 
4 29 37 43 44 50 
4 33 39 45 46 54 
4 34 40 46 47 55 
4 36 42 48 49 57 
4 37 43 49 50 58 
4 38 44 50 51 59 
4 39 45 53 54 62 
4 40 46 54 55 63 
4 42 48 56 57 65 
4 43 49 57 58 66 
4 44 50 58 59 67 
4 45 53 61 62 70 
4 46 54 62 63 71 
4 13 14 15 20 21 
4 14 15 16 21 22 
4 15 16 17 22 23 
4 16 17 18 23 24 
4 17 18 19 24 25 
4 21 22 23 28 29 
4 22 23 24 29 30 
4 23 24 25 30 31 
4 24 25 26 31 32 
4 25 26 27 32 33 
4 29 30 31 36 37 
4 30 31 32 37 38 
4 45 46 47 52 53 
4 49 50 51 56 57 
4 50 51 52 57 58 
4 51 52 53 58 59 
4 52 53 54 59 60 
4 53 54 55 60 61 
4 57 58 59 64 65 
4 58 59 60 65 66 
4 59 60 61 66 67 
4 60 61 62 67 68 
4 61 62 63 68 69 
4 12 13 14 22 23 
4 13 14 15 23 24 
4 14 15 16 24 25 
4 15 16 17 25 26 
4 16 17 18 26 27 
4 20 21 22 30 31 
4 21 22 23 31 32 
4 22 23 24 32 33 
4 23 24 25 33 34 
4 24 25 26 34 35 
4 31 32 33 39 40 
4 32 33 34 40 41 
4 42 43 44 50 51 
4 48 49 50 58 59 
4 49 50 51 59 60 
4 50 51 52 60 61 
4 51 52 53 61 62 
4 52 53 54 62 63 
4 56 57 58 66 67 
4 57 58 59 67 68 
4 58 59 60 68 69 
4 59 60 61 69 70 
4 60 61 62 70 71 
4 13 21 28 29 36 
4 14 22 29 30 37 
4 15 23 30 31 38 
4 18 26 33 34 39 
4 19 27 34 35 40 
4 21 29 36 37 42 
4 22 30 37 38 43 
4 26 34 39 40 45 
4 27 35 40 41 46 
4 29 37 42 43 48 
4 30 38 43 44 49 
4 34 40 45 46 53 
4 35 41 46 47 54 
4 37 43 48 49 56 
4 38 44 49 50 57 
4 39 45 52 53 60 
4 40 46 53 54 61 
4 41 47 54 55 62 
4 43 49 56 57 64 
4 44 50 57 58 65 
4 45 53 60 61 68 
4 46 54 61 62 69 
4 47 55 62 63 70 
4 14 15 20 21 22 
4 15 16 21 22 23 
4 16 17 22 23 24 
4 17 18 23 24 25 
4 18 19 24 25 26 
4 22 23 28 29 30 
4 23 24 29 30 31 
4 24 25 30 31 32 
4 25 26 31 32 33 
4 26 27 32 33 34 
4 30 31 36 37 38 
4 45 46 51 52 53 
4 46 47 52 53 54 
4 50 51 56 57 58 
4 51 52 57 58 59 
4 52 53 58 59 60 
4 53 54 59 60 61 
4 54 55 60 61 62 
4 58 59 64 65 66 
4 59 60 65 66 67 
4 60 61 66 67 68 
4 61 62 67 68 69 
4 62 63 68 69 70 
4 12 20 21 29 37 
4 13 21 22 30 38 
4 16 24 25 33 39 
4 17 25 26 34 40 
4 18 26 27 35 41 
4 20 28 29 37 43 
4 21 29 30 38 44 
4 24 32 33 39 45 
4 25 33 34 40 46 
4 26 34 35 41 47 
4 28 36 37 43 49 
4 29 37 38 44 50 
4 33 39 40 46 54 
4 34 40 41 47 55 
4 36 42 43 49 57 
4 37 43 44 50 58 
4 39 45 46 54 62 
4 40 46 47 55 63 
4 42 48 49 57 65 
4 43 49 50 58 66 
4 44 50 51 59 67 
4 45 53 54 62 70 
4 46 54 55 63 71 
4 13 20 21 28 36 
4 14 21 22 29 37 
4 15 22 23 30 38 
4 18 25 26 33 39 
4 19 26 27 34 40 
4 21 28 29 36 42 
4 22 29 30 37 43 
4 23 30 31 38 44 
4 26 33 34 39 45 
4 27 34 35 40 46 
4 29 36 37 42 48 
4 30 37 38 43 49 
4 34 39 40 45 53 
4 35 40 41 46 54 
4 37 42 43 48 56 
4 38 43 44 49 57 
4 40 45 46 53 61 
4 41 46 47 54 62 
4 43 48 49 56 64 
4 44 49 50 57 65 
4 45 52 53 60 68 
4 46 53 54 61 69 
4 47 54 55 62 70 
4 12 13 21 22 23 
4 13 14 22 23 24 
4 14 15 23 24 25 
4 15 16 24 25 26 
4 16 17 25 26 27 
4 20 21 29 30 31 
4 21 22 30 31 32 
4 22 23 31 32 33 
4 23 24 32 33 34 
4 24 25 33 34 35 
4 32 33 39 40 41 
4 42 43 49 50 51 
4 43 44 50 51 52 
4 48 49 57 58 59 
4 49 50 58 59 60 
4 50 51 59 60 61 
4 51 52 60 61 62 
4 52 53 61 62 63 
4 56 57 65 66 67 
4 57 58 66 67 68 
4 58 59 67 68 69 
4 59 60 68 69 70 
4 60 61 69 70 71 
5 12 13 14 21 29 
5 13 14 15 22 30 
5 14 15 16 23 31 
5 15 16 17 24 32 
5 16 17 18 25 33 
5 17 18 19 26 34 
5 20 21 22 29 37 
5 21 22 23 30 38 
5 24 25 26 33 39 
5 25 26 27 34 40 
5 28 29 30 37 43 
5 29 30 31 38 44 
5 32 33 34 39 45 
5 33 34 35 40 46 
5 36 37 38 43 49 
5 39 40 41 46 54 
5 42 43 44 49 57 
5 45 46 47 54 62 
5 48 49 50 57 65 
5 49 50 51 58 66 
5 50 51 52 59 67 
5 51 52 53 60 68 
5 52 53 54 61 69 
5 53 54 55 62 70 
5 13 21 28 29 30 
5 14 22 29 30 31 
5 15 23 30 31 32 
5 16 24 31 32 33 
5 17 25 32 33 34 
5 18 26 33 34 35 
5 21 29 36 37 38 
5 26 34 39 40 41 
5 29 37 42 43 44 
5 34 40 45 46 47 
5 37 43 48 49 50 
5 38 44 49 50 51 
5 39 45 52 53 54 
5 40 46 53 54 55 
5 43 49 56 57 58 
5 44 50 57 58 59 
5 45 53 60 61 62 
5 46 54 61 62 63 
5 49 57 64 65 66 
5 50 58 65 66 67 
5 51 59 66 67 68 
5 52 60 67 68 69 
5 53 61 68 69 70 
5 54 62 69 70 71 
5 14 20 21 22 30 
5 15 21 22 23 31 
5 16 22 23 24 32 
5 17 23 24 25 33 
5 18 24 25 26 34 
5 19 25 26 27 35 
5 22 28 29 30 38 
5 25 31 32 33 39 
5 26 32 33 34 40 
5 27 33 34 35 41 
5 30 36 37 38 44 
5 35 39 40 41 47 
5 38 42 43 44 50 
5 41 45 46 47 55 
5 44 48 49 50 58 
5 45 51 52 53 61 
5 46 52 53 54 62 
5 47 53 54 55 63 
5 50 56 57 58 66 
5 51 57 58 59 67 
5 52 58 59 60 68 
5 53 59 60 61 69 
5 54 60 61 62 70 
5 55 61 62 63 71 
5 12 20 21 22 28 
5 13 21 22 23 29 
5 14 22 23 24 30 
5 15 23 24 25 31 
5 16 24 25 26 32 
5 17 25 26 27 33 
5 20 28 29 30 36 
5 21 29 30 31 37 
5 22 30 31 32 38 
5 25 33 34 35 39 
5 28 36 37 38 42 
5 33 39 40 41 45 
5 36 42 43 44 48 
5 39 45 46 47 53 
5 42 48 49 50 56 
5 43 49 50 51 57 
5 44 50 51 52 58 
5 45 53 54 55 61 
5 48 56 57 58 64 
5 49 57 58 59 65 
5 50 58 59 60 66 
5 51 59 60 61 67 
5 52 60 61 62 68 
5 53 61 62 63 69 
6 12 14 20 21 22 
6 13 15 21 22 23 
6 14 16 22 23 24 
6 15 17 23 24 25 
6 16 18 24 25 26 
6 17 19 25 26 27 
6 20 22 28 29 30 
6 21 23 29 30 31 
6 22 24 30 31 32 
6 23 25 31 32 33 
6 24 26 32 33 34 
6 25 27 33 34 35 
6 28 30 36 37 38 
6 33 35 39 40 41 
6 36 38 42 43 44 
6 39 41 45 46 47 
6 42 44 48 49 50 
6 45 47 53 54 55 
6 48 50 56 57 58 
6 49 51 57 58 59 
6 50 52 58 59 60 
6 51 53 59 60 61 
6 52 54 60 61 62 
6 53 55 61 62 63 
6 56 58 64 65 66 
6 57 59 65 66 67 
6 58 60 66 67 68 
6 59 61 67 68 69 
6 60 62 68 69 70 
6 61 63 69 70 71 
6 12 13 14 20 22 
6 13 14 15 21 23 
6 14 15 16 22 24 
6 15 16 17 23 25 
6 16 17 18 24 26 
6 17 18 19 25 27 
6 20 21 22 28 30 
6 21 22 23 29 31 
6 22 23 24 30 32 
6 23 24 25 31 33 
6 24 25 26 32 34 
6 25 26 27 33 35 
6 28 29 30 36 38 
6 33 34 35 39 41 
6 36 37 38 42 44 
6 39 40 41 45 47 
6 42 43 44 48 50 
6 45 46 47 53 55 
6 48 49 50 56 58 
6 49 50 51 57 59 
6 50 51 52 58 60 
6 51 52 53 59 61 
6 52 53 54 60 62 
6 53 54 55 61 63 
6 56 57 58 64 66 
6 57 58 59 65 67 
6 58 59 60 66 68 
6 59 60 61 67 69 
6 60 61 62 68 70 
6 61 62 63 69 71 
6 12 13 21 28 29 
6 13 14 22 29 30 
6 14 15 23 30 31 
6 15 16 24 31 32 
6 16 17 25 32 33 
6 17 18 26 33 34 
6 18 19 27 34 35 
6 20 21 29 36 37 
6 21 22 30 37 38 
6 25 26 34 39 40 
6 26 27 35 40 41 
6 28 29 37 42 43 
6 29 30 38 43 44 
6 33 34 40 45 46 
6 34 35 41 46 47 
6 36 37 43 48 49 
6 37 38 44 49 50 
6 39 40 46 53 54 
6 40 41 47 54 55 
6 42 43 49 56 57 
6 43 44 50 57 58 
6 45 46 54 61 62 
6 46 47 55 62 63 
6 48 49 57 64 65 
6 49 50 58 65 66 
6 50 51 59 66 67 
6 51 52 60 67 68 
6 52 53 61 68 69 
6 53 54 62 69 70 
6 54 55 63 70 71 
6 12 13 20 28 29 
6 13 14 21 29 30 
6 14 15 22 30 31 
6 15 16 23 31 32 
6 16 17 24 32 33 
6 17 18 25 33 34 
6 18 19 26 34 35 
6 20 21 28 36 37 
6 21 22 29 37 38 
6 25 26 33 39 40 
6 26 27 34 40 41 
6 28 29 36 42 43 
6 29 30 37 43 44 
6 33 34 39 45 46 
6 34 35 40 46 47 
6 36 37 42 48 49 
6 37 38 43 49 50 
6 39 40 45 53 54 
6 40 41 46 54 55 
6 42 43 48 56 57 
6 43 44 49 57 58 
6 45 46 53 61 62 
6 46 47 54 62 63 
6 48 49 56 64 65 
6 49 50 57 65 66 
6 50 51 58 66 67 
6 51 52 59 67 68 
6 52 53 60 68 69 
6 53 54 61 69 70 
6 54 55 62 70 71 
7 12 20 28 29 30 
7 13 21 29 30 31 
7 14 22 30 31 32 
7 15 23 31 32 33 
7 16 24 32 33 34 
7 17 25 33 34 35 
7 20 28 36 37 38 
7 25 33 39 40 41 
7 28 36 42 43 44 
7 33 39 45 46 47 
7 36 42 48 49 50 
7 37 43 49 50 51 
7 38 44 50 51 52 
7 39 45 53 54 55 
7 42 48 56 57 58 
7 43 49 57 58 59 
7 44 50 58 59 60 
7 45 53 61 62 63 
7 48 56 64 65 66 
7 49 57 65 66 67 
7 50 58 66 67 68 
7 51 59 67 68 69 
7 52 60 68 69 70 
7 53 61 69 70 71 
7 14 22 28 29 30 
7 15 23 29 30 31 
7 16 24 30 31 32 
7 17 25 31 32 33 
7 18 26 32 33 34 
7 19 27 33 34 35 
7 22 30 36 37 38 
7 27 35 39 40 41 
7 30 38 42 43 44 
7 35 41 45 46 47 
7 38 44 48 49 50 
7 39 45 51 52 53 
7 40 46 52 53 54 
7 41 47 53 54 55 
7 44 50 56 57 58 
7 45 53 59 60 61 
7 46 54 60 61 62 
7 47 55 61 62 63 
7 50 58 64 65 66 
7 51 59 65 66 67 
7 52 60 66 67 68 
7 53 61 67 68 69 
7 54 62 68 69 70 
7 55 63 69 70 71 
7 12 13 14 20 28 
7 13 14 15 21 29 
7 14 15 16 22 30 
7 15 16 17 23 31 
7 16 17 18 24 32 
7 17 18 19 25 33 
7 20 21 22 28 36 
7 21 22 23 29 37 
7 22 23 24 30 38 
7 25 26 27 33 39 
7 28 29 30 36 42 
7 29 30 31 37 43 
7 30 31 32 38 44 
7 33 34 35 39 45 
7 36 37 38 42 48 
7 39 40 41 45 53 
7 42 43 44 48 56 
7 45 46 47 53 61 
7 48 49 50 56 64 
7 49 50 51 57 65 
7 50 51 52 58 66 
7 51 52 53 59 67 
7 52 53 54 60 68 
7 53 54 55 61 69 
7 12 13 14 22 30 
7 13 14 15 23 31 
7 14 15 16 24 32 
7 15 16 17 25 33 
7 16 17 18 26 34 
7 17 18 19 27 35 
7 20 21 22 30 38 
7 23 24 25 33 39 
7 24 25 26 34 40 
7 25 26 27 35 41 
7 28 29 30 38 44 
7 31 32 33 39 45 
7 32 33 34 40 46 
7 33 34 35 41 47 
7 36 37 38 44 50 
7 39 40 41 47 55 
7 42 43 44 50 58 
7 45 46 47 55 63 
7 48 49 50 58 66 
7 49 50 51 59 67 
7 50 51 52 60 68 
7 51 52 53 61 69 
7 52 53 54 62 70 
7 53 54 55 63 71 
8 12 20 21 29 30 
8 13 21 22 30 31 
8 14 22 23 31 32 
8 15 23 24 32 33 
8 16 24 25 33 34 
8 17 25 26 34 35 
8 20 28 29 37 38 
8 24 32 33 39 40 
8 25 33 34 40 41 
8 28 36 37 43 44 
8 33 39 40 46 47 
8 36 42 43 49 50 
8 37 43 44 50 51 
8 39 45 46 54 55 
8 42 48 49 57 58 
8 43 49 50 58 59 
8 44 50 51 59 60 
8 45 53 54 62 63 
8 48 56 57 65 66 
8 49 57 58 66 67 
8 50 58 59 67 68 
8 51 59 60 68 69 
8 52 60 61 69 70 
8 53 61 62 70 71 
8 14 21 22 28 29 
8 15 22 23 29 30 
8 16 23 24 30 31 
8 17 24 25 31 32 
8 18 25 26 32 33 
8 19 26 27 33 34 
8 22 29 30 36 37 
8 23 30 31 37 38 
8 27 34 35 39 40 
8 30 37 38 42 43 
8 35 40 41 45 46 
8 38 43 44 48 49 
8 40 45 46 52 53 
8 41 46 47 53 54 
8 44 49 50 56 57 
8 45 52 53 59 60 
8 46 53 54 60 61 
8 47 54 55 61 62 
8 50 57 58 64 65 
8 51 58 59 65 66 
8 52 59 60 66 67 
8 53 60 61 67 68 
8 54 61 62 68 69 
8 55 62 63 69 70 
8 12 13 21 22 30 
8 13 14 22 23 31 
8 14 15 23 24 32 
8 15 16 24 25 33 
8 16 17 25 26 34 
8 17 18 26 27 35 
8 20 21 29 30 38 
8 23 24 32 33 39 
8 24 25 33 34 40 
8 25 26 34 35 41 
8 28 29 37 38 44 
8 32 33 39 40 46 
8 33 34 40 41 47 
8 36 37 43 44 50 
8 39 40 46 47 55 
8 42 43 49 50 58 
8 43 44 50 51 59 
8 45 46 54 55 63 
8 48 49 57 58 66 
8 49 50 58 59 67 
8 50 51 59 60 68 
8 51 52 60 61 69 
8 52 53 61 62 70 
8 53 54 62 63 71 
8 13 14 20 21 28 
8 14 15 21 22 29 
8 15 16 22 23 30 
8 16 17 23 24 31 
8 17 18 24 25 32 
8 18 19 25 26 33 
8 21 22 28 29 36 
8 22 23 29 30 37 
8 23 24 30 31 38 
8 26 27 33 34 39 
8 29 30 36 37 42 
8 30 31 37 38 43 
8 34 35 39 40 45 
8 37 38 42 43 48 
8 40 41 45 46 53 
8 43 44 48 49 56 
8 45 46 52 53 60 
8 46 47 53 54 61 
8 49 50 56 57 64 
8 50 51 57 58 65 
8 51 52 58 59 66 
8 52 53 59 60 67 
8 53 54 60 61 68 
8 54 55 61 62 69 
9 13 20 21 22 29 
9 14 21 22 23 30 
9 15 22 23 24 31 
9 16 23 24 25 32 
9 17 24 25 26 33 
9 18 25 26 27 34 
9 21 28 29 30 37 
9 22 29 30 31 38 
9 25 32 33 34 39 
9 26 33 34 35 40 
9 29 36 37 38 43 
9 34 39 40 41 46 
9 37 42 43 44 49 
9 40 45 46 47 54 
9 43 48 49 50 57 
9 44 49 50 51 58 
9 45 52 53 54 61 
9 46 53 54 55 62 
9 49 56 57 58 65 
9 50 57 58 59 66 
9 51 58 59 60 67 
9 52 59 60 61 68 
9 53 60 61 62 69 
9 54 61 62 63 70 
10 12 20 28 29 36 
10 13 21 29 30 37 
10 14 22 30 31 38 
10 17 25 33 34 39 
10 18 26 34 35 40 
10 20 28 36 37 42 
10 21 29 37 38 43 
10 25 33 39 40 45 
10 26 34 40 41 46 
10 28 36 42 43 48 
10 29 37 43 44 49 
10 33 39 45 46 53 
10 34 40 46 47 54 
10 36 42 48 49 56 
10 37 43 49 50 57 
10 38 44 50 51 58 
10 39 45 53 54 61 
10 40 46 54 55 62 
10 42 48 56 57 64 
10 43 49 57 58 65 
10 44 50 58 59 66 
10 45 53 61 62 69 
10 46 54 62 63 70 
10 12 13 14 15 21 
10 13 14 15 16 22 
10 14 15 16 17 23 
10 15 16 17 18 24 
10 16 17 18 19 25 
10 20 21 22 23 29 
10 21 22 23 24 30 
10 22 23 24 25 31 
10 23 24 25 26 32 
10 24 25 26 27 33 
10 28 29 30 31 37 
10 29 30 31 32 38 
10 32 33 34 35 39 
10 48 49 50 51 57 
10 49 50 51 52 58 
10 50 51 52 53 59 
10 51 52 53 54 60 
10 52 53 54 55 61 
10 56 57 58 59 65 
10 57 58 59 60 66 
10 58 59 60 61 67 
10 59 60 61 62 68 
10 60 61 62 63 69 
10 12 13 14 15 22 
10 13 14 15 16 23 
10 14 15 16 17 24 
10 15 16 17 18 25 
10 16 17 18 19 26 
10 20 21 22 23 30 
10 21 22 23 24 31 
10 22 23 24 25 32 
10 23 24 25 26 33 
10 24 25 26 27 34 
10 28 29 30 31 38 
10 31 32 33 34 39 
10 32 33 34 35 40 
10 48 49 50 51 58 
10 49 50 51 52 59 
10 50 51 52 53 60 
10 51 52 53 54 61 
10 52 53 54 55 62 
10 56 57 58 59 66 
10 57 58 59 60 67 
10 58 59 60 61 68 
10 59 60 61 62 69 
10 60 61 62 63 70 
10 13 21 28 29 37 
10 14 22 29 30 38 
10 17 25 32 33 39 
10 18 26 33 34 40 
10 19 27 34 35 41 
10 21 29 36 37 43 
10 22 30 37 38 44 
10 26 34 39 40 46 
10 27 35 40 41 47 
10 29 37 42 43 49 
10 30 38 43 44 50 
10 34 40 45 46 54 
10 35 41 46 47 55 
10 37 43 48 49 57 
10 38 44 49 50 58 
10 39 45 52 53 61 
10 40 46 53 54 62 
10 41 47 54 55 63 
10 43 49 56 57 65 
10 44 50 57 58 66 
10 45 53 60 61 69 
10 46 54 61 62 70 
10 47 55 62 63 71 
10 14 20 21 22 23 
10 15 21 22 23 24 
10 16 22 23 24 25 
10 17 23 24 25 26 
10 18 24 25 26 27 
10 22 28 29 30 31 
10 23 29 30 31 32 
10 24 30 31 32 33 
10 25 31 32 33 34 
10 26 32 33 34 35 
10 44 48 49 50 51 
10 45 51 52 53 54 
10 46 52 53 54 55 
10 50 56 57 58 59 
10 51 57 58 59 60 
10 52 58 59 60 61 
10 53 59 60 61 62 
10 54 60 61 62 63 
10 58 64 65 66 67 
10 59 65 66 67 68 
10 60 66 67 68 69 
10 61 67 68 69 70 
10 62 68 69 70 71 
10 13 20 21 29 37 
10 14 21 22 30 38 
10 17 24 25 33 39 
10 18 25 26 34 40 
10 19 26 27 35 41 
10 21 28 29 37 43 
10 22 29 30 38 44 
10 25 32 33 39 45 
10 26 33 34 40 46 
10 27 34 35 41 47 
10 29 36 37 43 49 
10 30 37 38 44 50 
10 34 39 40 46 54 
10 35 40 41 47 55 
10 37 42 43 49 57 
10 38 43 44 50 58 
10 40 45 46 54 62 
10 41 46 47 55 63 
10 43 48 49 57 65 
10 44 49 50 58 66 
10 45 52 53 61 69 
10 46 53 54 62 70 
10 47 54 55 63 71 
10 12 20 21 28 36 
10 13 21 22 29 37 
10 14 22 23 30 38 
10 17 25 26 33 39 
10 18 26 27 34 40 
10 20 28 29 36 42 
10 21 29 30 37 43 
10 22 30 31 38 44 
10 25 33 34 39 45 
10 26 34 35 40 46 
10 28 36 37 42 48 
10 29 37 38 43 49 
10 33 39 40 45 53 
10 34 40 41 46 54 
10 36 42 43 48 56 
10 37 43 44 49 57 
10 39 45 46 53 61 
10 40 46 47 54 62 
10 42 48 49 56 64 
10 43 49 50 57 65 
10 44 50 51 58 66 
10 45 53 54 61 69 
10 46 54 55 62 70 
10 13 20 21 22 23 
10 14 21 22 23 24 
10 15 22 23 24 25 
10 16 23 24 25 26 
10 17 24 25 26 27 
10 21 28 29 30 31 
10 22 29 30 31 32 
10 23 30 31 32 33 
10 24 31 32 33 34 
10 25 32 33 34 35 
10 43 48 49 50 51 
10 44 49 50 51 52 
10 45 52 53 54 55 
10 49 56 57 58 59 
10 50 57 58 59 60 
10 51 58 59 60 61 
10 52 59 60 61 62 
10 53 60 61 62 63 
10 57 64 65 66 67 
10 58 65 66 67 68 
10 59 66 67 68 69 
10 60 67 68 69 70 
10 61 68 69 70 71 
11 12 13 21 29 30 
11 13 14 22 30 31 
11 14 15 23 31 32 
11 15 16 24 32 33 
11 16 17 25 33 34 
11 17 18 26 34 35 
11 20 21 29 37 38 
11 24 25 33 39 40 
11 25 26 34 40 41 
11 28 29 37 43 44 
11 32 33 39 45 46 
11 33 34 40 46 47 
11 36 37 43 49 50 
11 37 38 44 50 51 
11 39 40 46 54 55 
11 42 43 49 57 58 
11 43 44 50 58 59 
11 45 46 54 62 63 
11 48 49 57 65 66 
11 49 50 58 66 67 
11 50 51 59 67 68 
11 51 52 60 68 69 
11 52 53 61 69 70 
11 53 54 62 70 71 
11 13 14 21 28 29 
11 14 15 22 29 30 
11 15 16 23 30 31 
11 16 17 24 31 32 
11 17 18 25 32 33 
11 18 19 26 33 34 
11 21 22 29 36 37 
11 22 23 30 37 38 
11 26 27 34 39 40 
11 29 30 37 42 43 
11 30 31 38 43 44 
11 34 35 40 45 46 
11 37 38 43 48 49 
11 39 40 45 52 53 
11 40 41 46 53 54 
11 43 44 49 56 57 
11 45 46 53 60 61 
11 46 47 54 61 62 
11 49 50 57 64 65 
11 50 51 58 65 66 
11 51 52 59 66 67 
11 52 53 60 67 68 
11 53 54 61 68 69 
11 54 55 62 69 70 
11 14 20 21 22 28 
11 15 21 22 23 29 
11 16 22 23 24 30 
11 17 23 24 25 31 
11 18 24 25 26 32 
11 19 25 26 27 33 
11 22 28 29 30 36 
11 23 29 30 31 37 
11 24 30 31 32 38 
11 27 33 34 35 39 
11 30 36 37 38 42 
11 35 39 40 41 45 
11 38 42 43 44 48 
11 41 45 46 47 53 
11 44 48 49 50 56 
11 45 51 52 53 59 
11 46 52 53 54 60 
11 47 53 54 55 61 
11 50 56 57 58 64 
11 51 57 58 59 65 
11 52 58 59 60 66 
11 53 59 60 61 67 
11 54 60 61 62 68 
11 55 61 62 63 69 
11 12 20 21 22 30 
11 13 21 22 23 31 
11 14 22 23 24 32 
11 15 23 24 25 33 
11 16 24 25 26 34 
11 17 25 26 27 35 
11 20 28 29 30 38 
11 23 31 32 33 39 
11 24 32 33 34 40 
11 25 33 34 35 41 
11 28 36 37 38 44 
11 33 39 40 41 47 
11 36 42 43 44 50 
11 39 45 46 47 55 
11 42 48 49 50 58 
11 43 49 50 51 59 
11 44 50 51 52 60 
11 45 53 54 55 63 
11 48 56 57 58 66 
11 49 57 58 59 67 
11 50 58 59 60 68 
11 51 59 60 61 69 
11 52 60 61 62 70 
11 53 61 62 63 71 